p4_symbolic/symbolic/expected/conditional_sequence.smt2
; 
(set-info :status unknown)
(declare-fun standard_metadata.ingress_port () (_ BitVec 9))
(declare-fun standard_metadata.egress_spec () (_ BitVec 9))
(declare-fun h1.f1 () (_ BitVec 8))
(assert
 (let (($x109 (= standard_metadata.ingress_port (_ bv1 9))))
 (or (or false (= standard_metadata.ingress_port (_ bv0 9))) $x109)))
(assert
 (let (($x111 (= standard_metadata.egress_spec (_ bv1 9))))
 (let (($x95 (= standard_metadata.egress_spec (_ bv511 9))))
 (or $x95 (or (or false (= standard_metadata.egress_spec (_ bv0 9))) $x111)))))
(assert
 (let ((?x40 (concat (_ bv0 7) (_ bv0 1))))
 (let (($x41 (= h1.f1 ?x40)))
 (let (($x47 (ite $x41 false (and true (not $x41)))))
 (let (($x95 (= standard_metadata.egress_spec (_ bv511 9))))
 (let (($x153 (not $x95)))
 (and (and $x153 $x47) (= (- 1) (- 1)))))))))
(check-sat)

; 
(set-info :status unknown)
(declare-fun standard_metadata.ingress_port () (_ BitVec 9))
(declare-fun standard_metadata.egress_spec () (_ BitVec 9))
(declare-fun h1.f2 () (_ BitVec 8))
(assert
 (let (($x109 (= standard_metadata.ingress_port (_ bv1 9))))
 (or (or false (= standard_metadata.ingress_port (_ bv0 9))) $x109)))
(assert
 (let (($x111 (= standard_metadata.egress_spec (_ bv1 9))))
 (let (($x95 (= standard_metadata.egress_spec (_ bv511 9))))
 (or $x95 (or (or false (= standard_metadata.egress_spec (_ bv0 9))) $x111)))))
(assert
 (let ((?x40 (concat (_ bv0 7) (_ bv0 1))))
 (let (($x48 (= h1.f2 ?x40)))
 (let (($x53 (ite $x48 false (and true (not $x48)))))
 (let (($x95 (= standard_metadata.egress_spec (_ bv511 9))))
 (let (($x153 (not $x95)))
 (and (and $x153 $x53) (= (- 1) (- 1)))))))))
(check-sat)

; 
(set-info :status unknown)
(declare-fun standard_metadata.ingress_port () (_ BitVec 9))
(declare-fun standard_metadata.egress_spec () (_ BitVec 9))
(declare-fun h1.f3 () (_ BitVec 8))
(assert
 (let (($x109 (= standard_metadata.ingress_port (_ bv1 9))))
 (or (or false (= standard_metadata.ingress_port (_ bv0 9))) $x109)))
(assert
 (let (($x111 (= standard_metadata.egress_spec (_ bv1 9))))
 (let (($x95 (= standard_metadata.egress_spec (_ bv511 9))))
 (or $x95 (or (or false (= standard_metadata.egress_spec (_ bv0 9))) $x111)))))
(assert
 (let ((?x40 (concat (_ bv0 7) (_ bv0 1))))
 (let (($x54 (= h1.f3 ?x40)))
 (let (($x59 (ite $x54 false (and true (not $x54)))))
 (let (($x95 (= standard_metadata.egress_spec (_ bv511 9))))
 (let (($x153 (not $x95)))
 (and (and $x153 $x59) (= (- 1) (- 1)))))))))
(check-sat)

; 
(set-info :status unknown)
(declare-fun standard_metadata.ingress_port () (_ BitVec 9))
(declare-fun standard_metadata.egress_spec () (_ BitVec 9))
(declare-fun h1.f4 () (_ BitVec 8))
(assert
 (let (($x109 (= standard_metadata.ingress_port (_ bv1 9))))
 (or (or false (= standard_metadata.ingress_port (_ bv0 9))) $x109)))
(assert
 (let (($x111 (= standard_metadata.egress_spec (_ bv1 9))))
 (let (($x95 (= standard_metadata.egress_spec (_ bv511 9))))
 (or $x95 (or (or false (= standard_metadata.egress_spec (_ bv0 9))) $x111)))))
(assert
 (let ((?x40 (concat (_ bv0 7) (_ bv0 1))))
 (let (($x60 (= h1.f4 ?x40)))
 (let (($x65 (ite $x60 false (and true (not $x60)))))
 (let (($x95 (= standard_metadata.egress_spec (_ bv511 9))))
 (let (($x153 (not $x95)))
 (and (and $x153 $x65) (= (- 1) (- 1)))))))))
(check-sat)

; 
(set-info :status unknown)
(declare-fun standard_metadata.ingress_port () (_ BitVec 9))
(declare-fun standard_metadata.egress_spec () (_ BitVec 9))
(declare-fun h1.f5 () (_ BitVec 8))
(assert
 (let (($x109 (= standard_metadata.ingress_port (_ bv1 9))))
 (or (or false (= standard_metadata.ingress_port (_ bv0 9))) $x109)))
(assert
 (let (($x111 (= standard_metadata.egress_spec (_ bv1 9))))
 (let (($x95 (= standard_metadata.egress_spec (_ bv511 9))))
 (or $x95 (or (or false (= standard_metadata.egress_spec (_ bv0 9))) $x111)))))
(assert
 (let ((?x40 (concat (_ bv0 7) (_ bv0 1))))
 (let (($x66 (= h1.f5 ?x40)))
 (let (($x71 (ite $x66 false (and true (not $x66)))))
 (let (($x95 (= standard_metadata.egress_spec (_ bv511 9))))
 (let (($x153 (not $x95)))
 (and (and $x153 $x71) (= (- 1) (- 1)))))))))
(check-sat)

; 
(set-info :status unknown)
(declare-fun standard_metadata.ingress_port () (_ BitVec 9))
(declare-fun standard_metadata.egress_spec () (_ BitVec 9))
(declare-fun h1.f6 () (_ BitVec 8))
(assert
 (let (($x109 (= standard_metadata.ingress_port (_ bv1 9))))
 (or (or false (= standard_metadata.ingress_port (_ bv0 9))) $x109)))
(assert
 (let (($x111 (= standard_metadata.egress_spec (_ bv1 9))))
 (let (($x95 (= standard_metadata.egress_spec (_ bv511 9))))
 (or $x95 (or (or false (= standard_metadata.egress_spec (_ bv0 9))) $x111)))))
(assert
 (let ((?x40 (concat (_ bv0 7) (_ bv0 1))))
 (let (($x72 (= h1.f6 ?x40)))
 (let (($x77 (ite $x72 false (and true (not $x72)))))
 (let (($x95 (= standard_metadata.egress_spec (_ bv511 9))))
 (let (($x153 (not $x95)))
 (and (and $x153 $x77) (= (- 1) (- 1)))))))))
(check-sat)

; 
(set-info :status unknown)
(declare-fun standard_metadata.ingress_port () (_ BitVec 9))
(declare-fun standard_metadata.egress_spec () (_ BitVec 9))
(declare-fun h1.f7 () (_ BitVec 8))
(assert
 (let (($x109 (= standard_metadata.ingress_port (_ bv1 9))))
 (or (or false (= standard_metadata.ingress_port (_ bv0 9))) $x109)))
(assert
 (let (($x111 (= standard_metadata.egress_spec (_ bv1 9))))
 (let (($x95 (= standard_metadata.egress_spec (_ bv511 9))))
 (or $x95 (or (or false (= standard_metadata.egress_spec (_ bv0 9))) $x111)))))
(assert
 (let ((?x40 (concat (_ bv0 7) (_ bv0 1))))
 (let (($x78 (= h1.f7 ?x40)))
 (let (($x83 (ite $x78 false (and true (not $x78)))))
 (let (($x95 (= standard_metadata.egress_spec (_ bv511 9))))
 (let (($x153 (not $x95)))
 (and (and $x153 $x83) (= (- 1) (- 1)))))))))
(check-sat)

; 
(set-info :status unknown)
(declare-fun standard_metadata.ingress_port () (_ BitVec 9))
(declare-fun standard_metadata.egress_spec () (_ BitVec 9))
(declare-fun h1.f8 () (_ BitVec 8))
(assert
 (let (($x109 (= standard_metadata.ingress_port (_ bv1 9))))
 (or (or false (= standard_metadata.ingress_port (_ bv0 9))) $x109)))
(assert
 (let (($x111 (= standard_metadata.egress_spec (_ bv1 9))))
 (let (($x95 (= standard_metadata.egress_spec (_ bv511 9))))
 (or $x95 (or (or false (= standard_metadata.egress_spec (_ bv0 9))) $x111)))))
(assert
 (let ((?x40 (concat (_ bv0 7) (_ bv0 1))))
 (let (($x84 (= h1.f8 ?x40)))
 (let (($x89 (ite $x84 false (and true (not $x84)))))
 (let (($x95 (= standard_metadata.egress_spec (_ bv511 9))))
 (let (($x153 (not $x95)))
 (and (and $x153 $x89) (= (- 1) (- 1)))))))))
(check-sat)

; 
(set-info :status unknown)
(declare-fun standard_metadata.ingress_port () (_ BitVec 9))
(declare-fun standard_metadata.egress_spec () (_ BitVec 9))
(declare-fun h1.f1 () (_ BitVec 8))
(assert
 (let (($x109 (= standard_metadata.ingress_port (_ bv1 9))))
 (or (or false (= standard_metadata.ingress_port (_ bv0 9))) $x109)))
(assert
 (let (($x111 (= standard_metadata.egress_spec (_ bv1 9))))
 (let (($x95 (= standard_metadata.egress_spec (_ bv511 9))))
 (or $x95 (or (or false (= standard_metadata.egress_spec (_ bv0 9))) $x111)))))
(assert
 (let ((?x40 (concat (_ bv0 7) (_ bv0 1))))
 (let (($x41 (= h1.f1 ?x40)))
 (let (($x46 (ite $x41 (and true $x41) false)))
 (let (($x95 (= standard_metadata.egress_spec (_ bv511 9))))
 (let (($x153 (not $x95)))
 (and (and $x153 $x46) (= (- 1) (- 1)))))))))
(check-sat)

; 
(set-info :status unknown)
(declare-fun standard_metadata.ingress_port () (_ BitVec 9))
(declare-fun standard_metadata.egress_spec () (_ BitVec 9))
(declare-fun h1.f2 () (_ BitVec 8))
(assert
 (let (($x109 (= standard_metadata.ingress_port (_ bv1 9))))
 (or (or false (= standard_metadata.ingress_port (_ bv0 9))) $x109)))
(assert
 (let (($x111 (= standard_metadata.egress_spec (_ bv1 9))))
 (let (($x95 (= standard_metadata.egress_spec (_ bv511 9))))
 (or $x95 (or (or false (= standard_metadata.egress_spec (_ bv0 9))) $x111)))))
(assert
 (let ((?x40 (concat (_ bv0 7) (_ bv0 1))))
 (let (($x48 (= h1.f2 ?x40)))
 (let (($x52 (ite $x48 (and true $x48) false)))
 (let (($x95 (= standard_metadata.egress_spec (_ bv511 9))))
 (let (($x153 (not $x95)))
 (and (and $x153 $x52) (= (- 1) (- 1)))))))))
(check-sat)

; 
(set-info :status unknown)
(declare-fun standard_metadata.ingress_port () (_ BitVec 9))
(declare-fun standard_metadata.egress_spec () (_ BitVec 9))
(declare-fun h1.f3 () (_ BitVec 8))
(assert
 (let (($x109 (= standard_metadata.ingress_port (_ bv1 9))))
 (or (or false (= standard_metadata.ingress_port (_ bv0 9))) $x109)))
(assert
 (let (($x111 (= standard_metadata.egress_spec (_ bv1 9))))
 (let (($x95 (= standard_metadata.egress_spec (_ bv511 9))))
 (or $x95 (or (or false (= standard_metadata.egress_spec (_ bv0 9))) $x111)))))
(assert
 (let ((?x40 (concat (_ bv0 7) (_ bv0 1))))
 (let (($x54 (= h1.f3 ?x40)))
 (let (($x58 (ite $x54 (and true $x54) false)))
 (let (($x95 (= standard_metadata.egress_spec (_ bv511 9))))
 (let (($x153 (not $x95)))
 (and (and $x153 $x58) (= (- 1) (- 1)))))))))
(check-sat)

; 
(set-info :status unknown)
(declare-fun standard_metadata.ingress_port () (_ BitVec 9))
(declare-fun standard_metadata.egress_spec () (_ BitVec 9))
(declare-fun h1.f4 () (_ BitVec 8))
(assert
 (let (($x109 (= standard_metadata.ingress_port (_ bv1 9))))
 (or (or false (= standard_metadata.ingress_port (_ bv0 9))) $x109)))
(assert
 (let (($x111 (= standard_metadata.egress_spec (_ bv1 9))))
 (let (($x95 (= standard_metadata.egress_spec (_ bv511 9))))
 (or $x95 (or (or false (= standard_metadata.egress_spec (_ bv0 9))) $x111)))))
(assert
 (let ((?x40 (concat (_ bv0 7) (_ bv0 1))))
 (let (($x60 (= h1.f4 ?x40)))
 (let (($x64 (ite $x60 (and true $x60) false)))
 (let (($x95 (= standard_metadata.egress_spec (_ bv511 9))))
 (let (($x153 (not $x95)))
 (and (and $x153 $x64) (= (- 1) (- 1)))))))))
(check-sat)

; 
(set-info :status unknown)
(declare-fun standard_metadata.ingress_port () (_ BitVec 9))
(declare-fun standard_metadata.egress_spec () (_ BitVec 9))
(declare-fun h1.f5 () (_ BitVec 8))
(assert
 (let (($x109 (= standard_metadata.ingress_port (_ bv1 9))))
 (or (or false (= standard_metadata.ingress_port (_ bv0 9))) $x109)))
(assert
 (let (($x111 (= standard_metadata.egress_spec (_ bv1 9))))
 (let (($x95 (= standard_metadata.egress_spec (_ bv511 9))))
 (or $x95 (or (or false (= standard_metadata.egress_spec (_ bv0 9))) $x111)))))
(assert
 (let ((?x40 (concat (_ bv0 7) (_ bv0 1))))
 (let (($x66 (= h1.f5 ?x40)))
 (let (($x70 (ite $x66 (and true $x66) false)))
 (let (($x95 (= standard_metadata.egress_spec (_ bv511 9))))
 (let (($x153 (not $x95)))
 (and (and $x153 $x70) (= (- 1) (- 1)))))))))
(check-sat)

; 
(set-info :status unknown)
(declare-fun standard_metadata.ingress_port () (_ BitVec 9))
(declare-fun standard_metadata.egress_spec () (_ BitVec 9))
(declare-fun h1.f6 () (_ BitVec 8))
(assert
 (let (($x109 (= standard_metadata.ingress_port (_ bv1 9))))
 (or (or false (= standard_metadata.ingress_port (_ bv0 9))) $x109)))
(assert
 (let (($x111 (= standard_metadata.egress_spec (_ bv1 9))))
 (let (($x95 (= standard_metadata.egress_spec (_ bv511 9))))
 (or $x95 (or (or false (= standard_metadata.egress_spec (_ bv0 9))) $x111)))))
(assert
 (let ((?x40 (concat (_ bv0 7) (_ bv0 1))))
 (let (($x72 (= h1.f6 ?x40)))
 (let (($x76 (ite $x72 (and true $x72) false)))
 (let (($x95 (= standard_metadata.egress_spec (_ bv511 9))))
 (let (($x153 (not $x95)))
 (and (and $x153 $x76) (= (- 1) (- 1)))))))))
(check-sat)

; 
(set-info :status unknown)
(declare-fun standard_metadata.ingress_port () (_ BitVec 9))
(declare-fun standard_metadata.egress_spec () (_ BitVec 9))
(declare-fun h1.f7 () (_ BitVec 8))
(assert
 (let (($x109 (= standard_metadata.ingress_port (_ bv1 9))))
 (or (or false (= standard_metadata.ingress_port (_ bv0 9))) $x109)))
(assert
 (let (($x111 (= standard_metadata.egress_spec (_ bv1 9))))
 (let (($x95 (= standard_metadata.egress_spec (_ bv511 9))))
 (or $x95 (or (or false (= standard_metadata.egress_spec (_ bv0 9))) $x111)))))
(assert
 (let ((?x40 (concat (_ bv0 7) (_ bv0 1))))
 (let (($x78 (= h1.f7 ?x40)))
 (let (($x82 (ite $x78 (and true $x78) false)))
 (let (($x95 (= standard_metadata.egress_spec (_ bv511 9))))
 (let (($x153 (not $x95)))
 (and (and $x153 $x82) (= (- 1) (- 1)))))))))
(check-sat)

; 
(set-info :status unknown)
(declare-fun standard_metadata.ingress_port () (_ BitVec 9))
(declare-fun standard_metadata.egress_spec () (_ BitVec 9))
(declare-fun h1.f8 () (_ BitVec 8))
(assert
 (let (($x109 (= standard_metadata.ingress_port (_ bv1 9))))
 (or (or false (= standard_metadata.ingress_port (_ bv0 9))) $x109)))
(assert
 (let (($x111 (= standard_metadata.egress_spec (_ bv1 9))))
 (let (($x95 (= standard_metadata.egress_spec (_ bv511 9))))
 (or $x95 (or (or false (= standard_metadata.egress_spec (_ bv0 9))) $x111)))))
(assert
 (let ((?x40 (concat (_ bv0 7) (_ bv0 1))))
 (let (($x84 (= h1.f8 ?x40)))
 (let (($x88 (ite $x84 (and true $x84) false)))
 (let (($x95 (= standard_metadata.egress_spec (_ bv511 9))))
 (let (($x153 (not $x95)))
 (and (and $x153 $x88) (= (- 1) (- 1)))))))))
(check-sat)

; 
(set-info :status unknown)
(declare-fun standard_metadata.ingress_port () (_ BitVec 9))
(declare-fun standard_metadata.egress_spec () (_ BitVec 9))
(declare-fun h1.fr () (_ BitVec 8))
(assert
 (let (($x109 (= standard_metadata.ingress_port (_ bv1 9))))
 (or (or false (= standard_metadata.ingress_port (_ bv0 9))) $x109)))
(assert
 (let (($x111 (= standard_metadata.egress_spec (_ bv1 9))))
 (let (($x95 (= standard_metadata.egress_spec (_ bv511 9))))
 (or $x95 (or (or false (= standard_metadata.egress_spec (_ bv0 9))) $x111)))))
(assert
 (let (($x93 (and true (and true (= h1.fr (_ bv255 8))))))
 (let ((?x97 (ite $x93 0 (- 1))))
 (and (and (not (= standard_metadata.egress_spec (_ bv511 9))) true) (= ?x97 (- 1))))))
(check-sat)

; 
(set-info :status unknown)
(declare-fun standard_metadata.ingress_port () (_ BitVec 9))
(declare-fun standard_metadata.egress_spec () (_ BitVec 9))
(declare-fun h1.fr () (_ BitVec 8))
(assert
 (let (($x109 (= standard_metadata.ingress_port (_ bv1 9))))
 (or (or false (= standard_metadata.ingress_port (_ bv0 9))) $x109)))
(assert
 (let (($x111 (= standard_metadata.egress_spec (_ bv1 9))))
 (let (($x95 (= standard_metadata.egress_spec (_ bv511 9))))
 (or $x95 (or (or false (= standard_metadata.egress_spec (_ bv0 9))) $x111)))))
(assert
 (let (($x93 (and true (and true (= h1.fr (_ bv255 8))))))
 (let ((?x97 (ite $x93 0 (- 1))))
 (and (and (not (= standard_metadata.egress_spec (_ bv511 9))) true) (= ?x97 0)))))
(check-sat)
